Set parameter TokenServer to value "hpc-licenses.hpcc.usc.edu"
Set parameter TimeLimit to value 3600
Gurobi Optimizer version 9.5.1 build v9.5.1rc2 (linux64)
Thread count: 20 physical cores, 20 logical processors, using up to 20 threads
Optimize a model with 6007 rows, 4529 columns and 24534 nonzeros
Model fingerprint: 0x8f0095b3
Variable types: 4506 continuous, 23 integer (23 binary)
Coefficient statistics:
  Matrix range     [1e+00, 1e+00]
  Objective range  [8e-04, 1e+00]
  Bounds range     [1e+00, 1e+00]
  RHS range        [1e+00, 2e+01]
Found heuristic solution: objective 255.9581427
Presolve removed 1520 rows and 1515 columns
Presolve time: 0.16s
Presolved: 4487 rows, 3014 columns, 21975 nonzeros
Variable types: 2994 continuous, 20 integer (20 binary)

Root relaxation: objective 2.603407e+02, 2065 iterations, 0.08 seconds (0.13 work units)

    Nodes    |    Current Node    |     Objective Bounds      |     Work
 Expl Unexpl |  Obj  Depth IntInf | Incumbent    BestBd   Gap | It/Node Time

     0     0  260.34074    0    4  255.95814  260.34074  1.71%     -    0s
H    0     0                     256.8691016  260.34074  1.35%     -    0s
     0     0  260.27626    0    4  256.86910  260.27626  1.33%     -    0s
     0     0  260.17524    0    7  256.86910  260.17524  1.29%     -    0s
     0     0  260.17524    0    7  256.86910  260.17524  1.29%     -    0s
     0     0  260.10338    0    4  256.86910  260.10338  1.26%     -    0s
     0     0  260.10246    0    4  256.86910  260.10246  1.26%     -    0s
     0     0  260.00681    0    5  256.86910  260.00681  1.22%     -    0s
     0     0  260.00681    0    5  256.86910  260.00681  1.22%     -    0s
     0     0  260.00395    0    4  256.86910  260.00395  1.22%     -    0s
H    0     0                     257.1063214  260.00395  1.13%     -    0s
H    0     0                     258.5328414  259.92091  0.54%     -    0s
     0     0  259.90082    0    7  258.53284  259.90082  0.53%     -    0s
     0     0  259.88724    0    7  258.53284  259.88724  0.52%     -    0s
     0     2  259.88724    0    7  258.53284  259.88724  0.52%     -    1s
*    8     2               4     259.5646899  259.56469  0.00%   136    1s

Cutting planes:
  Gomory: 5
  MIR: 82
  RLT: 17
  Relax-and-lift: 1

Explored 9 nodes (3918 simplex iterations) in 1.15 seconds (0.80 work units)
Thread count was 20 (of 20 available processors)

Solution count 5: 259.565 258.533 257.106 ... 255.958

Optimal solution found (tolerance 1.00e-04)
Best objective 2.595646899094e+02, best bound 2.595646899094e+02, gap 0.0000%



#########node  1
V1.9
#########node  2
0.5192307692307692,0.48076923076923084
#########node  3
1.0,0.0


Total Solving Time 1.5743420124053955
obj value 259.56468990941704
Policy Regret train (Sum) 25.771276600534858
Best Treatment Found train (%) 28.999999999999996
treatment classification acc train (%) 51.0
Policy Regret test (Sum) 179.61433872965208
Best Treatment Found test (%) 56.57
treatment classification acc test (%) 50.42
